Using license file /home/benedond/gurobi.lic
Using gurobi.env file
Set parameter Threads to value 1
Academic license - for non-commercial use only
Changed value of parameter TimeLimit to 300.0
   Prev: inf  Min: 0.0  Max: inf  Default: inf
Gurobi Optimizer version 9.0.1 build v9.0.1rc0 (linux64)
Optimize a model with 6627 rows, 6351 columns and 31147 nonzeros
Model fingerprint: 0x9d305b3a
Variable types: 110 continuous, 6241 integer (6241 binary)
Coefficient statistics:
  Matrix range     [2e-01, 5e+02]
  Objective range  [6e-03, 2e-01]
  Bounds range     [1e+00, 1e+00]
  RHS range        [1e+00, 2e+03]
Found heuristic solution: objective 4.2511200
Presolve removed 127 rows and 98 columns
Presolve time: 0.11s
Presolved: 6500 rows, 6253 columns, 30729 nonzeros
Variable types: 109 continuous, 6144 integer (6144 binary)

Root relaxation: objective 1.912600e+00, 6130 iterations, 0.41 seconds

    Nodes    |    Current Node    |     Objective Bounds      |     Work
 Expl Unexpl |  Obj  Depth IntInf | Incumbent    BestBd   Gap | It/Node Time

     0     0    1.91260    0  383    4.25112    1.91260  55.0%     -    0s
H    0     0                       3.1062533    1.91260  38.4%     -    1s
     0     0    1.98937    0  304    3.10625    1.98937  36.0%     -    1s
     0     0    1.98949    0  305    3.10625    1.98949  36.0%     -    1s
     0     0    2.08552    0  273    3.10625    2.08552  32.9%     -    2s
     0     0    2.11163    0  254    3.10625    2.11163  32.0%     -    2s
     0     0    2.19557    0  304    3.10625    2.19557  29.3%     -    3s
     0     0    2.22492    0  321    3.10625    2.22492  28.4%     -    3s
     0     0    2.24921    0  296    3.10625    2.24921  27.6%     -    3s
     0     0    2.25256    0  344    3.10625    2.25256  27.5%     -    3s
     0     0    2.25498    0  301    3.10625    2.25498  27.4%     -    3s
     0     0    2.25529    0  301    3.10625    2.25529  27.4%     -    3s
     0     0    2.25536    0  298    3.10625    2.25536  27.4%     -    3s
     0     0    2.27170    0  355    3.10625    2.27170  26.9%     -    4s
     0     0    2.27682    0  325    3.10625    2.27682  26.7%     -    4s
     0     0    2.27738    0  326    3.10625    2.27738  26.7%     -    4s
     0     0    2.27755    0  309    3.10625    2.27755  26.7%     -    4s
     0     0    2.28545    0  388    3.10625    2.28545  26.4%     -    5s
     0     0    2.28928    0  364    3.10625    2.28928  26.3%     -    5s
     0     0    2.28967    0  329    3.10625    2.28967  26.3%     -    5s
     0     0    2.28975    0  356    3.10625    2.28975  26.3%     -    5s
     0     0    2.30163    0  337    3.10625    2.30163  25.9%     -    6s
     0     0    2.30377    0  334    3.10625    2.30377  25.8%     -    6s
     0     0    2.30498    0  358    3.10625    2.30498  25.8%     -    6s
     0     0    2.30551    0  369    3.10625    2.30551  25.8%     -    6s
     0     0    2.30554    0  371    3.10625    2.30554  25.8%     -    6s
     0     0    2.31840    0  400    3.10625    2.31840  25.4%     -    6s
     0     0    2.31973    0  346    3.10625    2.31973  25.3%     -    6s
     0     0    2.32126    0  388    3.10625    2.32126  25.3%     -    6s
     0     0    2.32219    0  375    3.10625    2.32219  25.2%     -    7s
     0     0    2.32235    0  359    3.10625    2.32235  25.2%     -    7s
     0     0    2.32931    0  395    3.10625    2.32931  25.0%     -    7s
     0     0    2.33072    0  384    3.10625    2.33072  25.0%     -    7s
     0     0    2.33182    0  376    3.10625    2.33182  24.9%     -    7s
     0     0    2.33226    0  309    3.10625    2.33226  24.9%     -    7s
     0     0    2.33292    0  350    3.10625    2.33292  24.9%     -    7s
     0     0    2.33357    0  334    3.10625    2.33357  24.9%     -    7s
     0     0    2.33388    0  362    3.10625    2.33388  24.9%     -    7s
     0     0    2.33415    0  349    3.10625    2.33415  24.9%     -    7s
     0     0    2.33418    0  333    3.10625    2.33418  24.9%     -    7s
     0     0    2.33662    0  377    3.10625    2.33662  24.8%     -    8s
     0     0    2.33752    0  339    3.10625    2.33752  24.7%     -    8s
     0     0    2.33794    0  351    3.10625    2.33794  24.7%     -    8s
     0     0    2.33802    0  324    3.10625    2.33802  24.7%     -    8s
     0     0    2.33955    0  318    3.10625    2.33955  24.7%     -    8s
     0     0    2.33990    0  301    3.10625    2.33990  24.7%     -    8s
     0     0    2.33998    0  312    3.10625    2.33998  24.7%     -    8s
     0     0    2.34262    0  395    3.10625    2.34262  24.6%     -    9s
     0     0    2.34340    0  417    3.10625    2.34340  24.6%     -    9s
     0     0    2.34368    0  403    3.10625    2.34368  24.5%     -    9s
     0     0    2.34562    0  376    3.10625    2.34562  24.5%     -    9s
     0     0    2.34574    0  363    3.10625    2.34574  24.5%     -    9s
     0     0    2.34720    0  382    3.10625    2.34720  24.4%     -    9s
     0     0    2.34720    0  375    3.10625    2.34720  24.4%     -   12s
H    0     0                       2.9161423    2.34730  19.5%     -   19s
     0     2    2.34730    0  375    2.91614    2.34730  19.5%     -   19s
     1     3    2.34746    1  365    2.91614    2.34746  19.5%   482   20s
    15    17    2.43988   11  375    2.91614    2.35091  19.4%   665   25s
H   33    33                       2.8837556    2.35091  18.5%   599   36s
    50    52    2.45244   38  305    2.88376    2.35091  18.5%   639   40s
    77    79    2.68844   56  216    2.88376    2.35091  18.5%   702   45s
   165   163    2.72642  128  178    2.88376    2.35091  18.5%   465   50s
   260   240    2.38360   21  360    2.88376    2.35103  18.5%   387   55s
   303   283    2.56628   53  312    2.88376    2.35103  18.5%   406   60s
H  310   275                       2.8513689    2.35103  17.5%   407   67s
   344   307    2.68497   89  187    2.85137    2.35103  17.5%   416   70s
   397   347    2.82771  129  136    2.85137    2.35103  17.5%   412   77s
   428   369    2.51624   23  311    2.85137    2.35449  17.4%   411   80s
   506   445    2.69904   87  190    2.85137    2.35449  17.4%   407   85s
   511   449    2.37388   14  375    2.85137    2.35449  17.4%   404   91s
H  512   427                       2.8513689    2.35449  17.4%   403   93s
   516   429    2.37149   22  354    2.85137    2.35449  17.4%   400   95s
   524   435    2.60891   74  339    2.85137    2.37309  16.8%   394  100s
   533   441    2.53336   44  416    2.85137    2.39347  16.1%   387  105s
   538   444    2.69007   54  441    2.85137    2.40433  15.7%   383  121s
   543   447    2.41077   14  459    2.85137    2.41077  15.5%   380  125s
   549   451    2.43935    9  446    2.85137    2.42271  15.0%   376  130s
   557   457    2.62058   78  392    2.85137    2.43273  14.7%   370  135s
   564   461    2.69825   85  435    2.85137    2.43765  14.5%   366  140s
   572   467    2.60931   66  494    2.85137    2.44260  14.3%   361  145s
   581   473    2.76828  121  451    2.85137    2.44644  14.2%   355  150s
   589   478    2.70451   98  558    2.85137    2.45420  13.9%   350  155s
   596   483    2.75347  148  551    2.85137    2.45736  13.8%   346  160s
   605   489    2.76821  132  580    2.85137    2.46044  13.7%   341  165s
   614   495    2.70789   66  478    2.85137    2.46264  13.6%   336  170s
   624   503    2.60891   74  249    2.85137    2.46327  13.6%   513  175s
   631   508    2.46327   20  466    2.85137    2.46327  13.6%   507  180s
   639   513    2.68829   75  502    2.85137    2.46800  13.4%   501  185s
   640   514    2.79932   96  512    2.85137    2.46851  13.4%   500  201s
   646   518    2.47031   28  481    2.85137    2.47031  13.4%   495  205s
   653   522    2.47165   28  449    2.85137    2.47165  13.3%   490  210s
   658   526    2.82314   85  551    2.85137    2.47700  13.1%   486  215s
   666   531    2.67142   62  455    2.85137    2.48440  12.9%   480  220s
   672   535    2.60931   66  592    2.85137    2.48782  12.8%   476  225s
   679   540    2.48963   22  565    2.85137    2.48963  12.7%   471  230s
   682   542    2.72610  126  563    2.85137    2.49013  12.7%   469  248s
   684   543    2.77183  108  561    2.85137    2.49013  12.7%   468  252s
   685   546    2.49023   21  429    2.85137    2.49023  12.7%   580  265s
   686   546    2.51050   21  379    2.85137    2.49023  12.7%   581  277s
   687   547    2.49066   22  488    2.85137    2.49066  12.7%   582  282s
   688   548    2.59574   22  312    2.85137    2.49066  12.7%   587  295s
   690   549    2.62857   23  316    2.85137    2.49068  12.6%   589  300s

Cutting planes:
  Gomory: 4
  Cover: 20
  Implied bound: 14
  Clique: 7
  MIR: 225
  StrongCG: 6
  Flow cover: 767
  Zero half: 1
  Mod-K: 1
  RLT: 26
  Relax-and-lift: 345

Explored 691 nodes (442976 simplex iterations) in 300.02 seconds
Thread count was 1 (of 4 available processors)

Solution count 5: 2.85137 2.88376 2.91614 ... 4.25112

Time limit reached
Best objective 2.851368881727e+00, best bound 2.490679581390e+00, gap 12.6497%
